Version identifier: 22.1.1.0 | 2022-11-28 | 9160aff4d
CPXPARAM_ClockType                               1
CPXPARAM_Read_DataCheck                          1
CPXPARAM_Threads                                 1
CPXPARAM_TimeLimit                               7200
CPXPARAM_MIP_Tolerances_AbsMIPGap                0
CPXPARAM_MIP_Tolerances_MIPGap                   0
CPXPARAM_MIP_Tolerances_Integrality              0
Tried aggregator 6 times.
MIP Presolve eliminated 51532 rows and 13358 columns.
MIP Presolve modified 1257 coefficients.
Aggregator did 7727 substitutions.
Reduced MIP has 157103 rows, 58752 columns, and 513387 nonzeros.
Reduced MIP has 58752 binaries, 0 generals, 0 SOSs, and 0 indicators.
Presolve time = 1.85 sec. (973.34 ticks)
Probing fixed 570 vars, tightened 0 bounds.
Probing time = 1.99 sec. (442.83 ticks)
Tried aggregator 3 times.
Detecting symmetries...
MIP Presolve eliminated 3876 rows and 991 columns.
MIP Presolve modified 580 coefficients.
Aggregator did 297 substitutions.
Reduced MIP has 152930 rows, 57464 columns, and 500237 nonzeros.
Reduced MIP has 57464 binaries, 0 generals, 0 SOSs, and 0 indicators.
Presolve time = 1.86 sec. (914.28 ticks)
Probing time = 0.06 sec. (16.73 ticks)
Clique table members: 290880.
MIP emphasis: balance optimality and feasibility.
MIP search method: dynamic search.
Parallel mode: none, using 1 thread.
Root relaxation solution time = 2732.91 sec. (802959.93 ticks)

        Nodes                                         Cuts/
   Node  Left     Objective  IInf  Best Integer    Best Bound    ItCnt     Gap

      0     0    50788.0000 17114                  50788.0000   484676         
      0     0    49266.5857 16442                Cliques: 849   514351         
      0     0    48109.1330 16277               Cliques: 1340   745412         

Clique cuts applied:  3536
Implied bound cuts applied:  2

Root node processing (before b&c):
  Real time             = 7200.16 sec. (2211371.99 ticks)
Sequential b&c:
  Real time             =    0.00 sec. (0.00 ticks)
                          ------------
Total (root+branch&cut) = 7200.16 sec. (2211371.99 ticks)
Solution is infeasible.

---------------------
@@@ MIP_time_limit_infeasible
Traceback (most recent call last):
  File "/scratch/scherif/DiverseSAT-journal_sup/DiverseSAT_Supplementary_Experiments/experiment-1/cplex/jobs/../solvers/CPLEX-IW-SE.py", line 105, in <module>
    print(f">>> Benchmark {os.path.basename(cnf_file)} k {k} OPT {int(prob.solution.get_objective_value())}"
  File "/users/scherif/.local/lib/python3.9/site-packages/cplex/_internal/_subinterfaces.py", line 7211, in get_objective_value
    return CPX_PROC.getobjval(self._env._e, self._cplex._lp)
  File "/users/scherif/.local/lib/python3.9/site-packages/cplex/_internal/_procedural.py", line 2055, in getobjval
    check_status(env, status)
  File "/users/scherif/.local/lib/python3.9/site-packages/cplex/_internal/_procedural.py", line 249, in __call__
    raise CplexSolverError(error_string, env, status)
cplex.exceptions.errors.CplexSolverError: CPLEX Error  1217: No solution exists.
